(set-info :smt-lib-version 2.6)
(set-logic QF_NIA)
(set-info :source |
Generated by: Cristina Borralleras, Daniel Larraz, Albert Oliveras, Enric Rodriguez-Carbonell, Albert Rubio
Generated on: 2017-04-27
Generator: VeryMax
Application: Termination proving
Target solver: barcelogic
|)
(set-info :license "https://creativecommons.org/licenses/by/4.0/")
(set-info :category "industrial")
(set-info :status sat)
(declare-fun Nl2arg11 () Int)
(declare-fun Nl2arg21 () Int)
(declare-fun Nl2arg31 () Int)
(declare-fun Nl2arg12 () Int)
(declare-fun Nl2arg22 () Int)
(declare-fun Nl2arg32 () Int)
(declare-fun lam0n0 () Int)
(declare-fun lam0n1 () Int)
(declare-fun lam0n2 () Int)
(declare-fun lam0n3 () Int)
(declare-fun lam0n4 () Int)
(declare-fun lam0n6 () Int)
(declare-fun lam0n7 () Int)
(declare-fun Nl2CT1 () Int)
(declare-fun Nl2CT2 () Int)
(declare-fun lam0n5 () Int)
(declare-fun lam1n0 () Int)
(declare-fun lam1n1 () Int)
(declare-fun lam1n2 () Int)
(declare-fun lam1n3 () Int)
(declare-fun lam1n4 () Int)
(declare-fun lam1n6 () Int)
(declare-fun lam1n7 () Int)
(declare-fun lam1n5 () Int)
(declare-fun lam2n0 () Int)
(declare-fun lam2n1 () Int)
(declare-fun lam2n2 () Int)
(declare-fun lam2n3 () Int)
(declare-fun lam2n4 () Int)
(declare-fun lam2n6 () Int)
(declare-fun lam2n7 () Int)
(declare-fun lam2n5 () Int)
(declare-fun lam3n0 () Int)
(declare-fun lam3n1 () Int)
(declare-fun lam3n2 () Int)
(declare-fun lam3n3 () Int)
(declare-fun lam3n4 () Int)
(declare-fun lam3n5 () Int)
(declare-fun lam3n7 () Int)
(declare-fun lam3n8 () Int)
(declare-fun lam3n6 () Int)
(declare-fun lam4n0 () Int)
(declare-fun lam4n1 () Int)
(declare-fun lam4n2 () Int)
(declare-fun lam4n3 () Int)
(declare-fun lam4n4 () Int)
(declare-fun lam4n5 () Int)
(declare-fun lam4n7 () Int)
(declare-fun lam4n8 () Int)
(declare-fun lam4n6 () Int)
(declare-fun lam5n0 () Int)
(declare-fun lam5n1 () Int)
(declare-fun lam5n2 () Int)
(declare-fun lam5n3 () Int)
(declare-fun lam5n4 () Int)
(declare-fun lam5n5 () Int)
(declare-fun lam5n7 () Int)
(declare-fun lam5n8 () Int)
(declare-fun lam5n6 () Int)
(declare-fun lam6n0 () Int)
(declare-fun lam6n1 () Int)
(declare-fun lam6n2 () Int)
(declare-fun lam6n3 () Int)
(declare-fun lam6n4 () Int)
(declare-fun lam6n5 () Int)
(declare-fun lam6n6 () Int)
(declare-fun lam6n8 () Int)
(declare-fun lam6n9 () Int)
(declare-fun lam6n7 () Int)
(declare-fun lam7n0 () Int)
(declare-fun lam7n1 () Int)
(declare-fun lam7n2 () Int)
(declare-fun lam7n3 () Int)
(declare-fun lam7n4 () Int)
(declare-fun lam7n5 () Int)
(declare-fun lam7n6 () Int)
(declare-fun lam7n8 () Int)
(declare-fun lam7n9 () Int)
(declare-fun lam7n7 () Int)
(declare-fun lam8n0 () Int)
(declare-fun lam8n1 () Int)
(declare-fun lam8n2 () Int)
(declare-fun lam8n3 () Int)
(declare-fun lam8n4 () Int)
(declare-fun lam8n5 () Int)
(declare-fun lam8n6 () Int)
(declare-fun lam8n8 () Int)
(declare-fun lam8n9 () Int)
(declare-fun lam8n7 () Int)
(declare-fun lam9n0 () Int)
(declare-fun lam9n1 () Int)
(declare-fun lam9n2 () Int)
(declare-fun lam9n3 () Int)
(declare-fun lam9n4 () Int)
(declare-fun lam10n0 () Int)
(declare-fun lam10n1 () Int)
(declare-fun lam10n2 () Int)
(declare-fun lam10n3 () Int)
(declare-fun lam10n4 () Int)
(declare-fun undef30 () Int)
(declare-fun undef29 () Int)
(declare-fun arg1 () Int)
(declare-fun arg2 () Int)
(declare-fun arg3 () Int)
(declare-fun FV_arg1_3 () Int)
(declare-fun FV_arg2_3 () Int)
(declare-fun FV_arg3_3 () Int)
(declare-fun lam11n0 () Int)
(declare-fun lam11n1 () Int)
(declare-fun lam11n2 () Int)
(declare-fun lam11n3 () Int)
(declare-fun lam11n4 () Int)
(declare-fun lam11n5 () Int)
(declare-fun lam11n7 () Int)
(declare-fun lam11n8 () Int)
(declare-fun lam11n6 () Int)
(declare-fun FV_arg1_4 () Int)
(declare-fun FV_arg2_4 () Int)
(declare-fun FV_arg3_4 () Int)
(assert ( and ( <= ( - 2 ) Nl2arg11 ) ( <= Nl2arg11 2 ) ( <= ( - 2 ) Nl2arg21 ) ( <= Nl2arg21 2 ) ( <= ( - 2 ) Nl2arg31 ) ( <= Nl2arg31 2 ) ( <= ( - 2 ) Nl2arg12 ) ( <= Nl2arg12 2 ) ( <= ( - 2 ) Nl2arg22 ) ( <= Nl2arg22 2 ) ( <= ( - 2 ) Nl2arg32 ) ( <= Nl2arg32 2 ) ))
(assert ( or ( and ( >= lam0n0 0 ) ( >= lam0n1 0 ) ( >= lam0n2 0 ) ( >= lam0n3 0 ) ( >= lam0n4 0 ) ( >= lam0n6 0 ) ( >= lam0n7 0 ) ( > ( + ( * ( - 1 ) lam0n1 ) ( * 2 lam0n2 ) ( * 5 lam0n3 ) ( * 6 lam0n4 ) ( * Nl2CT1 lam0n6 ) ( * Nl2CT2 lam0n7 ) ( - 1 ) ) 0 ) ( = ( + ( * ( - 1 ) lam0n0 ) ( * ( - 1 ) lam0n2 ) ( * ( - 1 ) lam0n4 ) ( * 1 lam0n5 ) ( * Nl2arg11 lam0n6 ) ( * Nl2arg12 lam0n7 ) ) 0 ) ( = ( + ( * 1 lam0n0 ) ( * ( - 1 ) lam0n1 ) ( * ( - 1 ) lam0n3 ) ( * ( - 1 ) lam0n4 ) ( * Nl2arg21 lam0n6 ) ( * Nl2arg22 lam0n7 ) ) 0 ) ( = ( + ( * 1 lam0n1 ) ( * ( - 1 ) lam0n5 ) ( * Nl2arg31 lam0n6 ) ( * Nl2arg32 lam0n7 ) ) 0 ) ) ( and ( >= lam1n0 0 ) ( >= lam1n1 0 ) ( >= lam1n2 0 ) ( >= lam1n3 0 ) ( >= lam1n4 0 ) ( >= lam1n6 0 ) ( >= lam1n7 0 ) ( > ( + ( * ( - 1 ) lam1n1 ) ( * 2 lam1n2 ) ( * 5 lam1n3 ) ( * 6 lam1n4 ) ( * Nl2CT1 lam1n6 ) ( * Nl2CT2 lam1n7 ) ( - 1 ( + ( + ( + Nl2CT1 ( * Nl2arg11 ( - 1 ) ) ) ( * Nl2arg21 ( - 1 ) ) ) ( * Nl2arg31 ( - 1 ) ) ) ) ) 0 ) ( = ( + ( * ( - 1 ) lam1n0 ) ( * ( - 1 ) lam1n2 ) ( * ( - 1 ) lam1n4 ) ( * 1 lam1n5 ) ( * Nl2arg11 lam1n6 ) ( * Nl2arg12 lam1n7 ) ( - ( + ( + 0 ( * Nl2arg11 1 ) ) ( * Nl2arg31 1 ) ) ) ) 0 ) ( = ( + ( * 1 lam1n0 ) ( * ( - 1 ) lam1n1 ) ( * ( - 1 ) lam1n3 ) ( * ( - 1 ) lam1n4 ) ( * Nl2arg21 lam1n6 ) ( * Nl2arg22 lam1n7 ) ( - ( + 0 ( * Nl2arg21 1 ) ) ) ) 0 ) ( = ( + ( * 1 lam1n1 ) ( * ( - 1 ) lam1n5 ) ( * Nl2arg31 lam1n6 ) ( * Nl2arg32 lam1n7 ) ) 0 ) ) ))
(assert ( or ( and ( >= lam0n0 0 ) ( >= lam0n1 0 ) ( >= lam0n2 0 ) ( >= lam0n3 0 ) ( >= lam0n4 0 ) ( >= lam0n6 0 ) ( >= lam0n7 0 ) ( > ( + ( * ( - 1 ) lam0n1 ) ( * 2 lam0n2 ) ( * 5 lam0n3 ) ( * 6 lam0n4 ) ( * Nl2CT1 lam0n6 ) ( * Nl2CT2 lam0n7 ) ( - 1 ) ) 0 ) ( = ( + ( * ( - 1 ) lam0n0 ) ( * ( - 1 ) lam0n2 ) ( * ( - 1 ) lam0n4 ) ( * 1 lam0n5 ) ( * Nl2arg11 lam0n6 ) ( * Nl2arg12 lam0n7 ) ) 0 ) ( = ( + ( * 1 lam0n0 ) ( * ( - 1 ) lam0n1 ) ( * ( - 1 ) lam0n3 ) ( * ( - 1 ) lam0n4 ) ( * Nl2arg21 lam0n6 ) ( * Nl2arg22 lam0n7 ) ) 0 ) ( = ( + ( * 1 lam0n1 ) ( * ( - 1 ) lam0n5 ) ( * Nl2arg31 lam0n6 ) ( * Nl2arg32 lam0n7 ) ) 0 ) ) ( and ( >= lam2n0 0 ) ( >= lam2n1 0 ) ( >= lam2n2 0 ) ( >= lam2n3 0 ) ( >= lam2n4 0 ) ( >= lam2n6 0 ) ( >= lam2n7 0 ) ( > ( + ( * ( - 1 ) lam2n1 ) ( * 2 lam2n2 ) ( * 5 lam2n3 ) ( * 6 lam2n4 ) ( * Nl2CT1 lam2n6 ) ( * Nl2CT2 lam2n7 ) ( - 1 ( + ( + ( + Nl2CT2 ( * Nl2arg12 ( - 1 ) ) ) ( * Nl2arg22 ( - 1 ) ) ) ( * Nl2arg32 ( - 1 ) ) ) ) ) 0 ) ( = ( + ( * ( - 1 ) lam2n0 ) ( * ( - 1 ) lam2n2 ) ( * ( - 1 ) lam2n4 ) ( * 1 lam2n5 ) ( * Nl2arg11 lam2n6 ) ( * Nl2arg12 lam2n7 ) ( - ( + ( + 0 ( * Nl2arg12 1 ) ) ( * Nl2arg32 1 ) ) ) ) 0 ) ( = ( + ( * 1 lam2n0 ) ( * ( - 1 ) lam2n1 ) ( * ( - 1 ) lam2n3 ) ( * ( - 1 ) lam2n4 ) ( * Nl2arg21 lam2n6 ) ( * Nl2arg22 lam2n7 ) ( - ( + 0 ( * Nl2arg22 1 ) ) ) ) 0 ) ( = ( + ( * 1 lam2n1 ) ( * ( - 1 ) lam2n5 ) ( * Nl2arg31 lam2n6 ) ( * Nl2arg32 lam2n7 ) ) 0 ) ) ))
(assert ( or ( and ( >= lam3n0 0 ) ( >= lam3n1 0 ) ( >= lam3n2 0 ) ( >= lam3n3 0 ) ( >= lam3n4 0 ) ( >= lam3n5 0 ) ( >= lam3n7 0 ) ( >= lam3n8 0 ) ( > ( + ( * 1 lam3n0 ) ( * 1 lam3n1 ) ( * ( - 1 ) lam3n2 ) ( * 2 lam3n3 ) ( * 2 lam3n4 ) ( * 6 lam3n5 ) ( * Nl2CT1 lam3n7 ) ( * Nl2CT2 lam3n8 ) ( - 1 ) ) 0 ) ( = ( + ( * 1 lam3n0 ) ( * ( - 1 ) lam3n1 ) ( * 1 lam3n3 ) ( * ( - 1 ) lam3n5 ) ( * 1 lam3n6 ) ( * Nl2arg11 lam3n7 ) ( * Nl2arg12 lam3n8 ) ) 0 ) ( = ( + ( * ( - 1 ) lam3n0 ) ( * ( - 1 ) lam3n2 ) ( * ( - 2 ) lam3n3 ) ( * ( - 1 ) lam3n4 ) ( * ( - 1 ) lam3n5 ) ( * Nl2arg21 lam3n7 ) ( * Nl2arg22 lam3n8 ) ) 0 ) ( = ( + ( * 1 lam3n2 ) ( * ( - 1 ) lam3n6 ) ( * Nl2arg31 lam3n7 ) ( * Nl2arg32 lam3n8 ) ) 0 ) ) ( and ( >= lam4n0 0 ) ( >= lam4n1 0 ) ( >= lam4n2 0 ) ( >= lam4n3 0 ) ( >= lam4n4 0 ) ( >= lam4n5 0 ) ( >= lam4n7 0 ) ( >= lam4n8 0 ) ( > ( + ( * 1 lam4n0 ) ( * 1 lam4n1 ) ( * ( - 1 ) lam4n2 ) ( * 2 lam4n3 ) ( * 2 lam4n4 ) ( * 6 lam4n5 ) ( * Nl2CT1 lam4n7 ) ( * Nl2CT2 lam4n8 ) ( - 1 ( + ( + ( + Nl2CT1 ( * Nl2arg11 1 ) ) ( * Nl2arg21 ( - 1 ) ) ) ( * Nl2arg31 1 ) ) ) ) 0 ) ( = ( + ( * 1 lam4n0 ) ( * ( - 1 ) lam4n1 ) ( * 1 lam4n3 ) ( * ( - 1 ) lam4n5 ) ( * 1 lam4n6 ) ( * Nl2arg11 lam4n7 ) ( * Nl2arg12 lam4n8 ) ( - ( + ( + 0 ( * Nl2arg11 1 ) ) ( * Nl2arg31 1 ) ) ) ) 0 ) ( = ( + ( * ( - 1 ) lam4n0 ) ( * ( - 1 ) lam4n2 ) ( * ( - 2 ) lam4n3 ) ( * ( - 1 ) lam4n4 ) ( * ( - 1 ) lam4n5 ) ( * Nl2arg21 lam4n7 ) ( * Nl2arg22 lam4n8 ) ( - ( + 0 ( * Nl2arg21 1 ) ) ) ) 0 ) ( = ( + ( * 1 lam4n2 ) ( * ( - 1 ) lam4n6 ) ( * Nl2arg31 lam4n7 ) ( * Nl2arg32 lam4n8 ) ) 0 ) ) ))
(assert ( or ( and ( >= lam3n0 0 ) ( >= lam3n1 0 ) ( >= lam3n2 0 ) ( >= lam3n3 0 ) ( >= lam3n4 0 ) ( >= lam3n5 0 ) ( >= lam3n7 0 ) ( >= lam3n8 0 ) ( > ( + ( * 1 lam3n0 ) ( * 1 lam3n1 ) ( * ( - 1 ) lam3n2 ) ( * 2 lam3n3 ) ( * 2 lam3n4 ) ( * 6 lam3n5 ) ( * Nl2CT1 lam3n7 ) ( * Nl2CT2 lam3n8 ) ( - 1 ) ) 0 ) ( = ( + ( * 1 lam3n0 ) ( * ( - 1 ) lam3n1 ) ( * 1 lam3n3 ) ( * ( - 1 ) lam3n5 ) ( * 1 lam3n6 ) ( * Nl2arg11 lam3n7 ) ( * Nl2arg12 lam3n8 ) ) 0 ) ( = ( + ( * ( - 1 ) lam3n0 ) ( * ( - 1 ) lam3n2 ) ( * ( - 2 ) lam3n3 ) ( * ( - 1 ) lam3n4 ) ( * ( - 1 ) lam3n5 ) ( * Nl2arg21 lam3n7 ) ( * Nl2arg22 lam3n8 ) ) 0 ) ( = ( + ( * 1 lam3n2 ) ( * ( - 1 ) lam3n6 ) ( * Nl2arg31 lam3n7 ) ( * Nl2arg32 lam3n8 ) ) 0 ) ) ( and ( >= lam5n0 0 ) ( >= lam5n1 0 ) ( >= lam5n2 0 ) ( >= lam5n3 0 ) ( >= lam5n4 0 ) ( >= lam5n5 0 ) ( >= lam5n7 0 ) ( >= lam5n8 0 ) ( > ( + ( * 1 lam5n0 ) ( * 1 lam5n1 ) ( * ( - 1 ) lam5n2 ) ( * 2 lam5n3 ) ( * 2 lam5n4 ) ( * 6 lam5n5 ) ( * Nl2CT1 lam5n7 ) ( * Nl2CT2 lam5n8 ) ( - 1 ( + ( + ( + Nl2CT2 ( * Nl2arg12 1 ) ) ( * Nl2arg22 ( - 1 ) ) ) ( * Nl2arg32 1 ) ) ) ) 0 ) ( = ( + ( * 1 lam5n0 ) ( * ( - 1 ) lam5n1 ) ( * 1 lam5n3 ) ( * ( - 1 ) lam5n5 ) ( * 1 lam5n6 ) ( * Nl2arg11 lam5n7 ) ( * Nl2arg12 lam5n8 ) ( - ( + ( + 0 ( * Nl2arg12 1 ) ) ( * Nl2arg32 1 ) ) ) ) 0 ) ( = ( + ( * ( - 1 ) lam5n0 ) ( * ( - 1 ) lam5n2 ) ( * ( - 2 ) lam5n3 ) ( * ( - 1 ) lam5n4 ) ( * ( - 1 ) lam5n5 ) ( * Nl2arg21 lam5n7 ) ( * Nl2arg22 lam5n8 ) ( - ( + 0 ( * Nl2arg22 1 ) ) ) ) 0 ) ( = ( + ( * 1 lam5n2 ) ( * ( - 1 ) lam5n6 ) ( * Nl2arg31 lam5n7 ) ( * Nl2arg32 lam5n8 ) ) 0 ) ) ))
(assert ( or ( and ( >= lam6n0 0 ) ( >= lam6n1 0 ) ( >= lam6n2 0 ) ( >= lam6n3 0 ) ( >= lam6n4 0 ) ( >= lam6n5 0 ) ( >= lam6n6 0 ) ( >= lam6n8 0 ) ( >= lam6n9 0 ) ( > ( + ( * 1 lam6n2 ) ( * ( - 1 ) lam6n3 ) ( * ( - 4 ) lam6n4 ) ( * ( - 4 ) lam6n5 ) ( * 6 lam6n6 ) ( * Nl2CT1 lam6n8 ) ( * Nl2CT2 lam6n9 ) ( - 1 ) ) 0 ) ( = ( + ( * ( - 1 ) lam6n0 ) ( * ( - 1 ) lam6n2 ) ( * 1 lam6n4 ) ( * ( - 1 ) lam6n6 ) ( * 1 lam6n7 ) ( * Nl2arg11 lam6n8 ) ( * Nl2arg12 lam6n9 ) ) 0 ) ( = ( + ( * 1 lam6n0 ) ( * ( - 1 ) lam6n1 ) ( * ( - 1 ) lam6n3 ) ( * ( - 1 ) lam6n4 ) ( * 1 lam6n5 ) ( * ( - 1 ) lam6n6 ) ( * Nl2arg21 lam6n8 ) ( * Nl2arg22 lam6n9 ) ) 0 ) ( = ( + ( * 1 lam6n3 ) ( * ( - 1 ) lam6n7 ) ( * Nl2arg31 lam6n8 ) ( * Nl2arg32 lam6n9 ) ) 0 ) ) ( and ( >= lam7n0 0 ) ( >= lam7n1 0 ) ( >= lam7n2 0 ) ( >= lam7n3 0 ) ( >= lam7n4 0 ) ( >= lam7n5 0 ) ( >= lam7n6 0 ) ( >= lam7n8 0 ) ( >= lam7n9 0 ) ( > ( + ( * 1 lam7n2 ) ( * ( - 1 ) lam7n3 ) ( * ( - 4 ) lam7n4 ) ( * ( - 4 ) lam7n5 ) ( * 6 lam7n6 ) ( * Nl2CT1 lam7n8 ) ( * Nl2CT2 lam7n9 ) ( - 1 ( + ( + ( + Nl2CT1 ( * Nl2arg11 ( - 1 ) ) ) ( * Nl2arg21 2 ) ) ( * Nl2arg31 ( - 1 ) ) ) ) ) 0 ) ( = ( + ( * ( - 1 ) lam7n0 ) ( * ( - 1 ) lam7n2 ) ( * 1 lam7n4 ) ( * ( - 1 ) lam7n6 ) ( * 1 lam7n7 ) ( * Nl2arg11 lam7n8 ) ( * Nl2arg12 lam7n9 ) ( - ( + ( + 0 ( * Nl2arg11 1 ) ) ( * Nl2arg31 1 ) ) ) ) 0 ) ( = ( + ( * 1 lam7n0 ) ( * ( - 1 ) lam7n1 ) ( * ( - 1 ) lam7n3 ) ( * ( - 1 ) lam7n4 ) ( * 1 lam7n5 ) ( * ( - 1 ) lam7n6 ) ( * Nl2arg21 lam7n8 ) ( * Nl2arg22 lam7n9 ) ( - ( + 0 ( * Nl2arg21 1 ) ) ) ) 0 ) ( = ( + ( * 1 lam7n3 ) ( * ( - 1 ) lam7n7 ) ( * Nl2arg31 lam7n8 ) ( * Nl2arg32 lam7n9 ) ) 0 ) ) ))
(assert ( or ( and ( >= lam6n0 0 ) ( >= lam6n1 0 ) ( >= lam6n2 0 ) ( >= lam6n3 0 ) ( >= lam6n4 0 ) ( >= lam6n5 0 ) ( >= lam6n6 0 ) ( >= lam6n8 0 ) ( >= lam6n9 0 ) ( > ( + ( * 1 lam6n2 ) ( * ( - 1 ) lam6n3 ) ( * ( - 4 ) lam6n4 ) ( * ( - 4 ) lam6n5 ) ( * 6 lam6n6 ) ( * Nl2CT1 lam6n8 ) ( * Nl2CT2 lam6n9 ) ( - 1 ) ) 0 ) ( = ( + ( * ( - 1 ) lam6n0 ) ( * ( - 1 ) lam6n2 ) ( * 1 lam6n4 ) ( * ( - 1 ) lam6n6 ) ( * 1 lam6n7 ) ( * Nl2arg11 lam6n8 ) ( * Nl2arg12 lam6n9 ) ) 0 ) ( = ( + ( * 1 lam6n0 ) ( * ( - 1 ) lam6n1 ) ( * ( - 1 ) lam6n3 ) ( * ( - 1 ) lam6n4 ) ( * 1 lam6n5 ) ( * ( - 1 ) lam6n6 ) ( * Nl2arg21 lam6n8 ) ( * Nl2arg22 lam6n9 ) ) 0 ) ( = ( + ( * 1 lam6n3 ) ( * ( - 1 ) lam6n7 ) ( * Nl2arg31 lam6n8 ) ( * Nl2arg32 lam6n9 ) ) 0 ) ) ( and ( >= lam8n0 0 ) ( >= lam8n1 0 ) ( >= lam8n2 0 ) ( >= lam8n3 0 ) ( >= lam8n4 0 ) ( >= lam8n5 0 ) ( >= lam8n6 0 ) ( >= lam8n8 0 ) ( >= lam8n9 0 ) ( > ( + ( * 1 lam8n2 ) ( * ( - 1 ) lam8n3 ) ( * ( - 4 ) lam8n4 ) ( * ( - 4 ) lam8n5 ) ( * 6 lam8n6 ) ( * Nl2CT1 lam8n8 ) ( * Nl2CT2 lam8n9 ) ( - 1 ( + ( + ( + Nl2CT2 ( * Nl2arg12 ( - 1 ) ) ) ( * Nl2arg22 2 ) ) ( * Nl2arg32 ( - 1 ) ) ) ) ) 0 ) ( = ( + ( * ( - 1 ) lam8n0 ) ( * ( - 1 ) lam8n2 ) ( * 1 lam8n4 ) ( * ( - 1 ) lam8n6 ) ( * 1 lam8n7 ) ( * Nl2arg11 lam8n8 ) ( * Nl2arg12 lam8n9 ) ( - ( + ( + 0 ( * Nl2arg12 1 ) ) ( * Nl2arg32 1 ) ) ) ) 0 ) ( = ( + ( * 1 lam8n0 ) ( * ( - 1 ) lam8n1 ) ( * ( - 1 ) lam8n3 ) ( * ( - 1 ) lam8n4 ) ( * 1 lam8n5 ) ( * ( - 1 ) lam8n6 ) ( * Nl2arg21 lam8n8 ) ( * Nl2arg22 lam8n9 ) ( - ( + 0 ( * Nl2arg22 1 ) ) ) ) 0 ) ( = ( + ( * 1 lam8n3 ) ( * ( - 1 ) lam8n7 ) ( * Nl2arg31 lam8n8 ) ( * Nl2arg32 lam8n9 ) ) 0 ) ) ))
(assert ( and ( <= ( + Nl2CT1 ( * Nl2arg11 FV_arg1_3 ) ( * Nl2arg21 FV_arg2_3 ) ( * Nl2arg31 FV_arg3_3 ) ) 0 ) ( <= ( + Nl2CT2 ( * Nl2arg12 FV_arg1_3 ) ( * Nl2arg22 FV_arg2_3 ) ( * Nl2arg32 FV_arg3_3 ) ) 0 ) ( <= ( + FV_arg1_3 ( * ( - 1 ) FV_arg3_3 ) ) 0 ) ( <= ( + ( * ( - 1 ) FV_arg1_3 ) FV_arg3_3 ) 0 ) ( <= ( + 6 ( * ( - 1 ) FV_arg1_3 ) ( * ( - 1 ) FV_arg2_3 ) ) 0 ) ))
(assert ( and ( >= lam11n0 0 ) ( >= lam11n1 0 ) ( >= lam11n2 0 ) ( >= lam11n3 0 ) ( >= lam11n4 0 ) ( >= lam11n5 0 ) ( >= lam11n7 0 ) ( >= lam11n8 0 ) ( > ( + ( * 1 lam11n1 ) ( * ( - 1 ) lam11n2 ) ( * 2 lam11n3 ) ( * 5 lam11n4 ) ( * 6 lam11n5 ) ( * Nl2CT1 lam11n7 ) ( * Nl2CT2 lam11n8 ) ( - 1 ) ) 0 ) ( = ( + ( * 1 lam11n0 ) ( * 1 lam11n1 ) ( * 1 lam11n3 ) ( * ( - 1 ) lam11n5 ) ( * 1 lam11n6 ) ( * Nl2arg11 lam11n7 ) ( * Nl2arg12 lam11n8 ) ) 0 ) ( = ( + ( * ( - 1 ) lam11n1 ) ( * ( - 1 ) lam11n2 ) ( * ( - 2 ) lam11n3 ) ( * ( - 1 ) lam11n4 ) ( * ( - 1 ) lam11n5 ) ( * Nl2arg21 lam11n7 ) ( * Nl2arg22 lam11n8 ) ) 0 ) ( = ( + ( * 1 lam11n2 ) ( * ( - 1 ) lam11n6 ) ( * Nl2arg31 lam11n7 ) ( * Nl2arg32 lam11n8 ) ) 0 ) ))
(assert ( and ( and ( <= ( + Nl2CT1 ( * Nl2arg11 FV_arg1_4 ) ( * Nl2arg21 FV_arg2_4 ) ( * Nl2arg31 FV_arg3_4 ) ) 0 ) ( <= ( + Nl2CT2 ( * Nl2arg12 FV_arg1_4 ) ( * Nl2arg22 FV_arg2_4 ) ( * Nl2arg32 FV_arg3_4 ) ) 0 ) ) ( or ( and ( <= ( + ( * ( - 1 ) FV_arg1_4 ) FV_arg2_4 ) 0 ) ( <= ( + ( - 1 ) ( * ( - 1 ) FV_arg2_4 ) FV_arg3_4 ) 0 ) ( <= ( + 2 ( * ( - 1 ) FV_arg1_4 ) ) 0 ) ( <= ( + 5 ( * ( - 1 ) FV_arg2_4 ) ) 0 ) ( <= ( + 6 ( * ( - 1 ) FV_arg1_4 ) ( * ( - 1 ) FV_arg2_4 ) ) 0 ) ( = ( + FV_arg1_4 ( * ( - 1 ) FV_arg3_4 ) ) 0 ) ) ( and ( <= ( + 1 FV_arg1_4 ( * ( - 1 ) FV_arg2_4 ) ) 0 ) ( <= ( + 1 ( * ( - 1 ) FV_arg1_4 ) ) 0 ) ( <= ( + ( - 1 ) ( * ( - 1 ) FV_arg2_4 ) FV_arg3_4 ) 0 ) ( <= ( + 2 FV_arg1_4 ( * ( - 2 ) FV_arg2_4 ) ) 0 ) ( <= ( + 2 ( * ( - 1 ) FV_arg2_4 ) ) 0 ) ( <= ( + 6 ( * ( - 1 ) FV_arg1_4 ) ( * ( - 1 ) FV_arg2_4 ) ) 0 ) ( = ( + FV_arg1_4 ( * ( - 1 ) FV_arg3_4 ) ) 0 ) ) ( and ( <= ( + ( * ( - 1 ) FV_arg1_4 ) FV_arg2_4 ) 0 ) ( <= ( * ( - 1 ) FV_arg2_4 ) 0 ) ( <= ( + 1 ( * ( - 1 ) FV_arg1_4 ) ) 0 ) ( <= ( + ( - 1 ) ( * ( - 1 ) FV_arg2_4 ) FV_arg3_4 ) 0 ) ( <= ( + ( - 4 ) FV_arg1_4 ( * ( - 1 ) FV_arg2_4 ) ) 0 ) ( <= ( + ( - 4 ) FV_arg2_4 ) 0 ) ( <= ( + 6 ( * ( - 1 ) FV_arg1_4 ) ( * ( - 1 ) FV_arg2_4 ) ) 0 ) ( = ( + FV_arg1_4 ( * ( - 1 ) FV_arg3_4 ) ) 0 ) ) ) ))
(check-sat)
(exit)
